Problem:    Marketing
Rows:       12
Columns:    10 (10 integer, 0 binary)
Non-zeros:  57
Status:     INTEGER OPTIMAL
Objective:  z = 1737050 (MAXimum)

   No.   Row name        Activity     Lower bound   Upper bound
------ ------------    ------------- ------------- -------------
     1 Tech[1]                 35670                       37000 
     2 Tech[2]                 31644                       32000 
     3 Tech[3]                 39993                       40000 
     4 Tech[4]                 46997                       47000 
     5 Maxvendita[1,1]
                                 200                         200 
     6 Maxvendita[1,2]
                                 300                         300 
     7 Maxvendita[2,1]
                                 150                         150 
     8 Maxvendita[2,2]
                                 450                         450 
     9 Maxvendita[3,1]
                                  50                          50 
    10 Maxvendita[3,2]
                                 100                         100 
    11 Maxvendita[3,3]
                                 150                         150 
    12 z                1.73705e+006                             

   No. Column name       Activity     Lower bound   Upper bound
------ ------------    ------------- ------------- -------------
     1 x[1,1]       *            200             0               
     2 x[1,2]       *            300             0               
     3 x[1,3]       *            603             0               
     4 x[2,1]       *            150             0               
     5 x[2,2]       *            450             0               
     6 x[2,3]       *              1             0               
     7 x[3,1]       *             50             0               
     8 x[3,2]       *            100             0               
     9 x[3,3]       *            150             0               
    10 x[3,4]       *            417             0               

Integer feasibility conditions:

KKT.PE: max.abs.err = 0.00e+000 on row 0
        max.rel.err = 0.00e+000 on row 0
        High quality

KKT.PB: max.abs.err = 0.00e+000 on row 0
        max.rel.err = 0.00e+000 on row 0
        High quality

End of output
